% seed = 0

mint = 12;
% maxt = 64;

nActs = 22;
dur = [0,4,1,5,4,2,4,5,4,3,1,4,3,4,4,2,4,2,1,5,2,0];

nSkills = 8;
sreq = [| 0,0,0,0,0,0,0,0,
	| 1,2,0,1,1,0,0,0,
	| 0,2,1,0,0,0,2,0,
	| 1,1,2,0,0,1,0,0,
	| 4,1,0,0,0,0,0,0,
	| 0,1,1,1,1,0,0,0,
	| 0,2,0,0,1,0,0,1,
	| 0,2,0,0,0,0,1,1,
	| 2,0,0,1,0,1,0,0,
	| 4,0,0,0,0,0,0,0,
	| 1,0,1,0,0,1,0,0,
	| 1,1,0,0,0,0,0,1,
	| 1,1,0,0,0,0,0,1,
	| 1,0,0,1,1,0,0,0,
	| 2,0,0,0,0,0,0,1,
	| 1,1,1,0,0,1,0,1,
	| 0,1,0,0,1,0,2,1,
	| 2,0,0,0,0,0,2,1,
	| 1,0,0,1,1,1,0,1,
	| 3,0,0,0,0,1,0,1,
	| 0,2,0,0,1,0,1,0,
	| 0,0,0,0,0,0,0,0, |];

% SumOfsreq = 84;

nResources = 10;
mastery = [| false,true,true,true,true,true,true,false,
	| true,true,true,false,true,true,true,false,
	| false,false,true,true,true,true,true,true,
	| true,false,true,true,true,false,true,false,
	| true,true,true,true,false,false,false,true,
	| false,true,false,true,true,true,false,true,
	| true,true,true,false,false,true,false,true,
	| false,true,true,false,false,false,true,true,
	| true,true,false,false,true,true,false,false,
	| false,true,true,false,false,false,true,true, |];

nPrecs = 53;
pred = [1,1,1,1,1,1,1,1,1,1,1,1,1,1,1,1,1,1,1,1,2,2,2,2,3,3,4,4,5,5,6,6,7,7,8,8,9,10,10,11,12,13,13,14,15,16,16,17,18,19,20,20,21];
succ = [2,3,4,5,6,7,8,9,10,11,12,13,14,15,16,17,18,19,20,21,15,6,7,22,5,22,20,22,6,22,10,22,14,22,14,22,22,11,22,22,22,19,22,22,22,20,22,22,22,22,21,22,22];

nUnrels = 166;
unpred = [2,2,2,2,2,2,2,2,2,2,2,2,2,3,3,3,3,3,3,3,3,3,3,3,3,3,3,4,4,4,4,4,4,4,4,4,4,4,4,4,4,4,5,5,5,5,5,5,5,5,5,5,5,5,5,6,6,6,6,6,6,6,6,6,6,6,6,6,7,7,7,7,7,7,7,7,7,7,7,7,7,8,8,8,8,8,8,8,8,8,8,8,8,9,9,9,9,9,9,9,9,9,9,9,9,10,10,10,10,10,10,10,10,10,10,11,11,11,11,11,11,11,11,11,11,12,12,12,12,12,12,12,12,12,13,13,13,13,13,13,13,14,14,14,14,14,14,14,15,15,15,15,15,15,16,16,16,17,17,17,17,18,18,18,19,19];
unsucc = [3,4,5,8,9,12,13,16,17,18,19,20,21,4,7,8,9,12,13,14,15,16,17,18,19,20,21,5,6,7,8,9,10,11,12,13,14,15,16,17,18,19,7,8,9,12,13,14,15,16,17,18,19,20,21,7,8,9,12,13,14,15,16,17,18,19,20,21,8,9,10,11,12,13,15,16,17,18,19,20,21,9,10,11,12,13,15,16,17,18,19,20,21,10,11,12,13,14,15,16,17,18,19,20,21,12,13,14,15,16,17,18,19,20,21,12,13,14,15,16,17,18,19,20,21,13,14,15,16,17,18,19,20,21,14,15,16,17,18,20,21,15,16,17,18,19,20,21,16,17,18,19,20,21,17,18,19,18,19,20,21,19,20,21,20,21];

USEFUL_RES = [{},
	{1,2,3,4,5,6,7,8,9,10},
	{1,2,3,4,5,6,7,8,9,10},
	{1,2,3,4,5,6,7,8,9,10},
	{1,2,4,5,6,7,8,9,10},
	{1,2,3,4,5,6,7,8,9,10},
	{1,2,3,4,5,6,7,8,9,10},
	{1,2,3,4,5,6,7,8,9,10},
	{1,2,3,4,5,6,7,9},
	{2,4,5,7,9},
	{1,2,3,4,5,6,7,8,9,10},
	{1,2,3,4,5,6,7,8,9,10},
	{1,2,3,4,5,6,7,8,9,10},
	{1,2,3,4,5,6,7,9},
	{2,3,4,5,6,7,8,9,10},
	{1,2,3,4,5,6,7,8,9,10},
	{1,2,3,4,5,6,7,8,9,10},
	{1,2,3,4,5,6,7,8,9,10},
	{1,2,3,4,5,6,7,8,9,10},
	{1,2,3,4,5,6,7,8,9,10},
	{1,2,3,4,5,6,7,8,9,10},
	{}];

POTENTIAL_ACT = [{2,3,4,5,6,7,8,9,11,12,13,14,16,17,18,19,20,21},
	{2,3,4,5,6,7,8,9,10,11,12,13,14,15,16,17,18,19,20,21},
	{2,3,4,6,7,8,9,11,12,13,14,15,16,17,18,19,20,21},
	{2,3,4,5,6,7,8,9,10,11,12,13,14,15,16,17,18,19,20,21},
	{2,3,4,5,6,7,8,9,10,11,12,13,14,15,16,17,18,19,20,21},
	{2,3,4,5,6,7,8,9,11,12,13,14,15,16,17,18,19,20,21},
	{2,3,4,5,6,7,8,9,10,11,12,13,14,15,16,17,18,19,20,21},
	{2,3,4,5,6,7,8,11,12,13,15,16,17,18,19,20,21},
	{2,3,4,5,6,7,8,9,10,11,12,13,14,15,16,17,18,19,20,21},
	{2,3,4,5,6,7,8,11,12,13,15,16,17,18,19,20,21}];
